<number of tasks>
50

<cycle time>
1000

<order strength>
0.896


<task times>
1 228
2 182
3 69
4 54
5 59
6 131
7 124
8 64
9 264
10 152
11 145
12 198
13 191
14 80
15 158
16 115
17 143
18 149
19 56
20 134
21 123
22 76
23 164
24 68
25 138
26 222
27 239
28 32
29 77
30 216
31 218
32 164
33 151
34 163
35 68
36 332
37 180
38 74
39 308
40 101
41 170
42 264
43 43
44 282
45 131
46 198
47 119
48 347
49 23
50 207

<precedence relations>
1,3
1,4
1,5
2,3
2,4
2,5
3,6
3,7
3,8
4,6
4,7
4,8
5,6
5,7
5,8
6,9
6,10
7,9
7,10
8,9
8,10
9,11
9,12
10,11
10,12
11,13
11,14
11,15
12,13
12,14
12,15
13,16
13,17
13,18
14,16
14,17
14,18
15,16
15,17
15,18
16,19
16,20
16,21
16,22
17,19
17,20
17,21
17,22
18,19
18,20
18,21
18,22
19,23
19,24
20,23
20,24
20,25
21,23
21,24
21,25
22,24
23,30
23,33
23,34
24,26
24,27
24,28
25,26
25,27
25,28
26,29
26,30
26,31
27,29
28,29
28,30
29,32
29,36
29,38
30,35
30,38
31,32
31,33
31,34
32,35
32,37
33,36
34,38
35,39
36,39
37,40
37,49
38,43
39,40
39,41
39,42
39,43
40,45
43,44
44,46
44,47
44,48
45,46
48,49
48,50

<end>
